n_res = 4;
rcap = [10, 19, 78, 66];
rtype = [1, 1, 2, 2];
n_tasks = 14;
modes = [ {1, 2, 3}, {4, 5, 6}, {7, 8, 9}, {10, 11, 12}, {13, 14, 15}, {16, 17, 18}, {19, 20, 21}, {22, 23, 24}, {25, 26, 27}, {28, 29, 30}, {31, 32, 33}, {34, 35, 36}, {37, 38, 39}, {40, 41, 42} ];
succ = [ {4, 8}, {5, 7, 11}, {8, 10, 11}, {6, 9}, {8, 9, 10}, {7, 10, 11}, {13}, {12, 14}, {12}, {12, 14}, {14}, {}, {}, {} ];
n_opt = 42;
dur = [2, 3, 6, 6, 9, 10, 1, 6, 8, 1, 3, 4, 1, 3, 5, 3, 4, 5, 7, 8, 9, 2, 3, 6, 3, 4, 10, 1, 6, 8, 4, 5, 6, 2, 5, 7, 1, 7, 10, 1, 5, 6];
rreq = [|  0,  0,  0,  0,  0,  5,  0,  0,  0,  4,  0,  3,  3,  2,  0, 10,  5,  4,  2,  0,  0,  0,  0,  3,  5,  4,  0,  5,  2,  0,  0,  0,  0,  9,  6,  3,  0,  0,  0,  0,  6,  6
        |  5,  4,  4,  3,  3,  0,  8,  5,  2,  0,  5,  0,  0,  0,  7,  0,  0,  0,  0, 10,  9,  8,  8,  0,  0,  0,  6,  0,  0,  4,  4,  3,  3,  0,  0,  0,  8,  5,  5, 10,  0,  0
        | 10,  9,  0, 10,  9,  8,  4,  0,  3,  9,  0,  2,  7,  0,  0,  8,  0,  0,  0,  0,  7,  4,  0,  1,  0,  6,  4,  8,  0,  4,  7,  0,  7,  7,  7,  7,  5,  0,  0,  7,  0,  7
        |  0,  0,  5,  0,  0,  0,  0,  5,  0,  0,  6,  0,  0,  9,  9,  0,  6,  6,  9,  6,  0,  0,  8,  0,  8,  0,  0,  0,  9,  0,  0,  8,  0,  0,  0,  0,  0,  6,  4,  0,  9,  0 |];
